data/lp_files/pEFS/52_4.lp
\ Model foo
\ LP format - for model browsing. Use MPS format to capture full model detail.
Minimize
  z
Subject To
 allocateEach[1]: x[1,1] + x[2,1] + x[3,1] = 1
 allocateEach[2]: x[1,2] + x[2,2] + x[3,2] = 1
 allocateEach[3]: x[1,3] + x[2,3] + x[3,3] = 1
 allocateEach[4]: x[1,4] + x[2,4] + x[3,4] = 1
 allocateEach[5]: x[1,5] + x[2,5] + x[3,5] = 1
 allocateEach[6]: x[1,6] + x[2,6] + x[3,6] = 1
 allocateEach[7]: x[1,7] + x[2,7] + x[3,7] = 1
 allocateEach[8]: x[1,8] + x[2,8] + x[3,8] = 1
 allocateEach[9]: x[1,9] + x[2,9] + x[3,9] = 1
 allocateEach[10]: x[1,10] + x[2,10] + x[3,10] = 1
 allocateEach[11]: x[1,11] + x[2,11] + x[3,11] = 1
 allocateEach[12]: x[1,12] + x[2,12] + x[3,12] = 1
 allocateAllCash: cashProportion[1] + cashProportion[2] + cashProportion[3]
   = 1
 findWorstP[1,2]: z + 0.0378071833648393 cashProportion[1]
   - 0.0378071833648393 cashProportion[2] + 0.0875916824196597 x[1,1]
   + 0.1334896030245747 x[1,2] + 0.023758034026465 x[1,3]
   + 0.1380869565217391 x[1,4] + 0.092930056710775 x[1,5]
   + 0.1210586011342155 x[1,6] + 0.1001285444234404 x[1,7]
   + 0.0061398865784499 x[1,8] + 0.1444083175803402 x[1,9]
   + 1.6635160680529299e-04 x[1,10] + 0.0748582230623818 x[1,11]
   + 0.0395765595463138 x[1,12] - 0.0875916824196597 x[2,1]
   - 0.1334896030245747 x[2,2] - 0.023758034026465 x[2,3]
   - 0.1380869565217391 x[2,4] - 0.092930056710775 x[2,5]
   - 0.1210586011342155 x[2,6] - 0.1001285444234404 x[2,7]
   - 0.0061398865784499 x[2,8] - 0.1444083175803402 x[2,9]
   - 1.6635160680529299e-04 x[2,10] - 0.0748582230623818 x[2,11]
   - 0.0395765595463138 x[2,12] >= 0
 findWorstP[1,3]: z + 0.0378071833648393 cashProportion[1]
   - 0.0378071833648393 cashProportion[3] + 0.0875916824196597 x[1,1]
   + 0.1334896030245747 x[1,2] + 0.023758034026465 x[1,3]
   + 0.1380869565217391 x[1,4] + 0.092930056710775 x[1,5]
   + 0.1210586011342155 x[1,6] + 0.1001285444234404 x[1,7]
   + 0.0061398865784499 x[1,8] + 0.1444083175803402 x[1,9]
   + 1.6635160680529299e-04 x[1,10] + 0.0748582230623818 x[1,11]
   + 0.0395765595463138 x[1,12] - 0.0875916824196597 x[3,1]
   - 0.1334896030245747 x[3,2] - 0.023758034026465 x[3,3]
   - 0.1380869565217391 x[3,4] - 0.092930056710775 x[3,5]
   - 0.1210586011342155 x[3,6] - 0.1001285444234404 x[3,7]
   - 0.0061398865784499 x[3,8] - 0.1444083175803402 x[3,9]
   - 1.6635160680529299e-04 x[3,10] - 0.0748582230623818 x[3,11]
   - 0.0395765595463138 x[3,12] >= 0
 findWorstP[2,1]: z - 0.0410380997718282 cashProportion[1]
   + 0.0410380997718282 cashProportion[2] - 0.0352599353239548 x[1,1]
   - 0.1431901377238628 x[1,2] - 0.0542359526584481 x[1,3]
   - 0.0920402501682562 x[1,4] - 0.1615916216615506 x[1,5]
   - 0.0935012065201333 x[1,6] - 0.0351286134046849 x[1,7]
   - 0.1146768660023966 x[1,8] - 0.0830775291780889 x[1,9]
   - 0.0354405029629508 x[1,10] - 0.1038920533823602 x[1,11]
   - 0.00692723124148459 x[1,12] + 0.0352599353239548 x[2,1]
   + 0.1431901377238628 x[2,2] + 0.0542359526584481 x[2,3]
   + 0.0920402501682562 x[2,4] + 0.1615916216615506 x[2,5]
   + 0.0935012065201333 x[2,6] + 0.0351286134046849 x[2,7]
   + 0.1146768660023966 x[2,8] + 0.0830775291780889 x[2,9]
   + 0.0354405029629508 x[2,10] + 0.1038920533823602 x[2,11]
   + 0.00692723124148459 x[2,12] >= 0
 findWorstP[2,3]: z + 0.0410380997718282 cashProportion[2]
   - 0.0410380997718282 cashProportion[3] + 0.0352599353239548 x[2,1]
   + 0.1431901377238628 x[2,2] + 0.0542359526584481 x[2,3]
   + 0.0920402501682562 x[2,4] + 0.1615916216615506 x[2,5]
   + 0.0935012065201333 x[2,6] + 0.0351286134046849 x[2,7]
   + 0.1146768660023966 x[2,8] + 0.0830775291780889 x[2,9]
   + 0.0354405029629508 x[2,10] + 0.1038920533823602 x[2,11]
   + 0.00692723124148459 x[2,12] - 0.0352599353239548 x[3,1]
   - 0.1431901377238628 x[3,2] - 0.0542359526584481 x[3,3]
   - 0.0920402501682562 x[3,4] - 0.1615916216615506 x[3,5]
   - 0.0935012065201333 x[3,6] - 0.0351286134046849 x[3,7]
   - 0.1146768660023966 x[3,8] - 0.0830775291780889 x[3,9]
   - 0.0354405029629508 x[3,10] - 0.1038920533823602 x[3,11]
   - 0.00692723124148459 x[3,12] >= 0
 findWorstP[3,1]: z - 0.0431547875921355 cashProportion[1]
   + 0.0431547875921355 cashProportion[3] - 0.0187809635600974 x[1,1]
   - 0.0931107697087915 x[1,2] - 0.0868274326353766 x[1,3]
   - 0.0245637050974435 x[1,4] - 0.1687697433153234 x[1,5]
   - 0.0564809860005869 x[1,6] - 0.0142238179903678 x[1,7]
   - 0.1245792408209767 x[1,8] - 0.0651809911791614 x[1,9]
   - 0.06688992076781 x[1,10] - 0.0753137353057948 x[1,11]
   - 0.1621239060261345 x[1,12] + 0.0187809635600974 x[3,1]
   + 0.0931107697087915 x[3,2] + 0.0868274326353766 x[3,3]
   + 0.0245637050974435 x[3,4] + 0.1687697433153234 x[3,5]
   + 0.0564809860005869 x[3,6] + 0.0142238179903678 x[3,7]
   + 0.1245792408209767 x[3,8] + 0.0651809911791614 x[3,9]
   + 0.06688992076781 x[3,10] + 0.0753137353057948 x[3,11]
   + 0.1621239060261345 x[3,12] >= 0
 findWorstP[3,2]: z - 0.0431547875921355 cashProportion[2]
   + 0.0431547875921355 cashProportion[3] - 0.0187809635600974 x[2,1]
   - 0.0931107697087915 x[2,2] - 0.0868274326353766 x[2,3]
   - 0.0245637050974435 x[2,4] - 0.1687697433153234 x[2,5]
   - 0.0564809860005869 x[2,6] - 0.0142238179903678 x[2,7]
   - 0.1245792408209767 x[2,8] - 0.0651809911791614 x[2,9]
   - 0.06688992076781 x[2,10] - 0.0753137353057948 x[2,11]
   - 0.1621239060261345 x[2,12] + 0.0187809635600974 x[3,1]
   + 0.0931107697087915 x[3,2] + 0.0868274326353766 x[3,3]
   + 0.0245637050974435 x[3,4] + 0.1687697433153234 x[3,5]
   + 0.0564809860005869 x[3,6] + 0.0142238179903678 x[3,7]
   + 0.1245792408209767 x[3,8] + 0.0651809911791614 x[3,9]
   + 0.06688992076781 x[3,10] + 0.0753137353057948 x[3,11]
   + 0.1621239060261345 x[3,12] >= 0
Bounds
 z <= 1
 -infinity <= cashProportion[1] <= 1
 -infinity <= cashProportion[2] <= 1
 -infinity <= cashProportion[3] <= 1
Binaries
 x[1,1] x[1,2] x[1,3] x[1,4] x[1,5] x[1,6] x[1,7] x[1,8] x[1,9] x[1,10]
 x[1,11] x[1,12] x[2,1] x[2,2] x[2,3] x[2,4] x[2,5] x[2,6] x[2,7] x[2,8]
 x[2,9] x[2,10] x[2,11] x[2,12] x[3,1] x[3,2] x[3,3] x[3,4] x[3,5] x[3,6]
 x[3,7] x[3,8] x[3,9] x[3,10] x[3,11] x[3,12]
End
