data/mps_files/q3/52_4.mps
NAME foo
ROWS
 N  OBJ
 E  allocateEach[1]
 E  allocateEach[2]
 E  allocateEach[3]
 E  allocateEach[4]
 E  allocateEach[5]
 E  allocateEach[6]
 E  allocateEach[7]
 E  allocateEach[8]
 E  allocateEach[9]
 E  allocateEach[10]
 E  allocateEach[11]
 E  allocateEach[12]
 E  allocateAllCash
 G  findWorstP[1,2]
 G  findWorstP[1,3]
 G  findWorstP[2,1]
 G  findWorstP[2,3]
 G  findWorstP[3,1]
 G  findWorstP[3,2]
COLUMNS
    z         OBJ       1
    z         findWorstP[1,2]  1
    z         findWorstP[1,3]  1
    z         findWorstP[2,1]  1
    z         findWorstP[2,3]  1
    z         findWorstP[3,1]  1
    z         findWorstP[3,2]  1
    cashProportion[1]  allocateAllCash  1
    cashProportion[1]  findWorstP[1,2]  3.7807183364839313e-02
    cashProportion[1]  findWorstP[1,3]  3.7807183364839313e-02
    cashProportion[1]  findWorstP[2,1]  -4.1038099771828158e-02
    cashProportion[1]  findWorstP[3,1]  -4.3154787592135466e-02
    cashProportion[2]  allocateAllCash  1
    cashProportion[2]  findWorstP[1,2]  -3.7807183364839313e-02
    cashProportion[2]  findWorstP[2,1]  4.1038099771828158e-02
    cashProportion[2]  findWorstP[2,3]  4.1038099771828158e-02
    cashProportion[2]  findWorstP[3,2]  -4.3154787592135466e-02
    cashProportion[3]  allocateAllCash  1
    cashProportion[3]  findWorstP[1,3]  -3.7807183364839313e-02
    cashProportion[3]  findWorstP[2,3]  -4.1038099771828158e-02
    cashProportion[3]  findWorstP[3,1]  4.3154787592135466e-02
    cashProportion[3]  findWorstP[3,2]  4.3154787592135466e-02
    MARKER    'MARKER'                 'INTORG'
    x[1,1]    allocateEach[1]  1
    x[1,1]    findWorstP[1,2]  8.7591682419659728e-02
    x[1,1]    findWorstP[1,3]  8.7591682419659728e-02
    x[1,1]    findWorstP[2,1]  -3.5259935323954751e-02
    x[1,1]    findWorstP[3,1]  -1.8780963560097355e-02
    x[1,2]    allocateEach[2]  1
    x[1,2]    findWorstP[1,2]  1.3348960302457466e-01
    x[1,2]    findWorstP[1,3]  1.3348960302457466e-01
    x[1,2]    findWorstP[2,1]  -1.4319013772386280e-01
    x[1,2]    findWorstP[3,1]  -9.3110769708791480e-02
    x[1,3]    allocateEach[3]  1
    x[1,3]    findWorstP[1,2]  2.3758034026465022e-02
    x[1,3]    findWorstP[1,3]  2.3758034026465022e-02
    x[1,3]    findWorstP[2,1]  -0.0542359526584481
    x[1,3]    findWorstP[3,1]  -8.6827432635376553e-02
    x[1,4]    allocateEach[4]  1
    x[1,4]    findWorstP[1,2]  1.3808695652173911e-01
    x[1,4]    findWorstP[1,3]  1.3808695652173911e-01
    x[1,4]    findWorstP[2,1]  -9.2040250168256191e-02
    x[1,4]    findWorstP[3,1]  -2.4563705097443510e-02
    x[1,5]    allocateEach[5]  1
    x[1,5]    findWorstP[1,2]  9.2930056710775033e-02
    x[1,5]    findWorstP[1,3]  9.2930056710775033e-02
    x[1,5]    findWorstP[2,1]  -1.6159162166155056e-01
    x[1,5]    findWorstP[3,1]  -1.6876974331532338e-01
    x[1,6]    allocateEach[6]  1
    x[1,6]    findWorstP[1,2]  1.2105860113421547e-01
    x[1,6]    findWorstP[1,3]  1.2105860113421547e-01
    x[1,6]    findWorstP[2,1]  -9.3501206520133273e-02
    x[1,6]    findWorstP[3,1]  -5.6480986000586896e-02
    x[1,7]    allocateEach[7]  1
    x[1,7]    findWorstP[1,2]  1.0012854442344044e-01
    x[1,7]    findWorstP[1,3]  1.0012854442344044e-01
    x[1,7]    findWorstP[2,1]  -0.0351286134046849
    x[1,7]    findWorstP[3,1]  -1.4223817990367850e-02
    x[1,8]    allocateEach[8]  1
    x[1,8]    findWorstP[1,2]  6.1398865784499041e-03
    x[1,8]    findWorstP[1,3]  6.1398865784499041e-03
    x[1,8]    findWorstP[2,1]  -1.1467686600239660e-01
    x[1,8]    findWorstP[3,1]  -1.2457924082097667e-01
    x[1,9]    allocateEach[9]  1
    x[1,9]    findWorstP[1,2]  1.4440831758034023e-01
    x[1,9]    findWorstP[1,3]  1.4440831758034023e-01
    x[1,9]    findWorstP[2,1]  -8.3077529178088930e-02
    x[1,9]    findWorstP[3,1]  -0.0651809911791614
    x[1,10]   allocateEach[10]  1
    x[1,10]   findWorstP[1,2]  0.000166351606805293
    x[1,10]   findWorstP[1,3]  0.000166351606805293
    x[1,10]   findWorstP[2,1]  -0.0354405029629508
    x[1,10]   findWorstP[3,1]  -6.6889920767809974e-02
    x[1,11]   allocateEach[11]  1
    x[1,11]   findWorstP[1,2]  7.4858223062381837e-02
    x[1,11]   findWorstP[1,3]  7.4858223062381837e-02
    x[1,11]   findWorstP[2,1]  -1.0389205338236017e-01
    x[1,11]   findWorstP[3,1]  -7.5313735305794813e-02
    x[1,12]   allocateEach[12]  1
    x[1,12]   findWorstP[1,2]  3.9576559546313790e-02
    x[1,12]   findWorstP[1,3]  3.9576559546313790e-02
    x[1,12]   findWorstP[2,1]  -6.9272312414845934e-03
    x[1,12]   findWorstP[3,1]  -1.6212390602613452e-01
    x[2,1]    allocateEach[1]  1
    x[2,1]    findWorstP[1,2]  -8.7591682419659728e-02
    x[2,1]    findWorstP[2,1]  3.5259935323954751e-02
    x[2,1]    findWorstP[2,3]  3.5259935323954751e-02
    x[2,1]    findWorstP[3,2]  -1.8780963560097355e-02
    x[2,2]    allocateEach[2]  1
    x[2,2]    findWorstP[1,2]  -1.3348960302457466e-01
    x[2,2]    findWorstP[2,1]  1.4319013772386280e-01
    x[2,2]    findWorstP[2,3]  1.4319013772386280e-01
    x[2,2]    findWorstP[3,2]  -9.3110769708791480e-02
    x[2,3]    allocateEach[3]  1
    x[2,3]    findWorstP[1,2]  -2.3758034026465022e-02
    x[2,3]    findWorstP[2,1]  0.0542359526584481
    x[2,3]    findWorstP[2,3]  0.0542359526584481
    x[2,3]    findWorstP[3,2]  -8.6827432635376553e-02
    x[2,4]    allocateEach[4]  1
    x[2,4]    findWorstP[1,2]  -1.3808695652173911e-01
    x[2,4]    findWorstP[2,1]  9.2040250168256191e-02
    x[2,4]    findWorstP[2,3]  9.2040250168256191e-02
    x[2,4]    findWorstP[3,2]  -2.4563705097443510e-02
    x[2,5]    allocateEach[5]  1
    x[2,5]    findWorstP[1,2]  -9.2930056710775033e-02
    x[2,5]    findWorstP[2,1]  1.6159162166155056e-01
    x[2,5]    findWorstP[2,3]  1.6159162166155056e-01
    x[2,5]    findWorstP[3,2]  -1.6876974331532338e-01
    x[2,6]    allocateEach[6]  1
    x[2,6]    findWorstP[1,2]  -1.2105860113421547e-01
    x[2,6]    findWorstP[2,1]  9.3501206520133273e-02
    x[2,6]    findWorstP[2,3]  9.3501206520133273e-02
    x[2,6]    findWorstP[3,2]  -5.6480986000586896e-02
    x[2,7]    allocateEach[7]  1
    x[2,7]    findWorstP[1,2]  -1.0012854442344044e-01
    x[2,7]    findWorstP[2,1]  0.0351286134046849
    x[2,7]    findWorstP[2,3]  0.0351286134046849
    x[2,7]    findWorstP[3,2]  -1.4223817990367850e-02
    x[2,8]    allocateEach[8]  1
    x[2,8]    findWorstP[1,2]  -6.1398865784499041e-03
    x[2,8]    findWorstP[2,1]  1.1467686600239660e-01
    x[2,8]    findWorstP[2,3]  1.1467686600239660e-01
    x[2,8]    findWorstP[3,2]  -1.2457924082097667e-01
    x[2,9]    allocateEach[9]  1
    x[2,9]    findWorstP[1,2]  -1.4440831758034023e-01
    x[2,9]    findWorstP[2,1]  8.3077529178088930e-02
    x[2,9]    findWorstP[2,3]  8.3077529178088930e-02
    x[2,9]    findWorstP[3,2]  -0.0651809911791614
    x[2,10]   allocateEach[10]  1
    x[2,10]   findWorstP[1,2]  -0.000166351606805293
    x[2,10]   findWorstP[2,1]  0.0354405029629508
    x[2,10]   findWorstP[2,3]  0.0354405029629508
    x[2,10]   findWorstP[3,2]  -6.6889920767809974e-02
    x[2,11]   allocateEach[11]  1
    x[2,11]   findWorstP[1,2]  -7.4858223062381837e-02
    x[2,11]   findWorstP[2,1]  1.0389205338236017e-01
    x[2,11]   findWorstP[2,3]  1.0389205338236017e-01
    x[2,11]   findWorstP[3,2]  -7.5313735305794813e-02
    x[2,12]   allocateEach[12]  1
    x[2,12]   findWorstP[1,2]  -3.9576559546313790e-02
    x[2,12]   findWorstP[2,1]  6.9272312414845934e-03
    x[2,12]   findWorstP[2,3]  6.9272312414845934e-03
    x[2,12]   findWorstP[3,2]  -1.6212390602613452e-01
    x[3,1]    allocateEach[1]  1
    x[3,1]    findWorstP[1,3]  -8.7591682419659728e-02
    x[3,1]    findWorstP[2,3]  -3.5259935323954751e-02
    x[3,1]    findWorstP[3,1]  1.8780963560097355e-02
    x[3,1]    findWorstP[3,2]  1.8780963560097355e-02
    x[3,2]    allocateEach[2]  1
    x[3,2]    findWorstP[1,3]  -1.3348960302457466e-01
    x[3,2]    findWorstP[2,3]  -1.4319013772386280e-01
    x[3,2]    findWorstP[3,1]  9.3110769708791480e-02
    x[3,2]    findWorstP[3,2]  9.3110769708791480e-02
    x[3,3]    allocateEach[3]  1
    x[3,3]    findWorstP[1,3]  -2.3758034026465022e-02
    x[3,3]    findWorstP[2,3]  -0.0542359526584481
    x[3,3]    findWorstP[3,1]  8.6827432635376553e-02
    x[3,3]    findWorstP[3,2]  8.6827432635376553e-02
    x[3,4]    allocateEach[4]  1
    x[3,4]    findWorstP[1,3]  -1.3808695652173911e-01
    x[3,4]    findWorstP[2,3]  -9.2040250168256191e-02
    x[3,4]    findWorstP[3,1]  2.4563705097443510e-02
    x[3,4]    findWorstP[3,2]  2.4563705097443510e-02
    x[3,5]    allocateEach[5]  1
    x[3,5]    findWorstP[1,3]  -9.2930056710775033e-02
    x[3,5]    findWorstP[2,3]  -1.6159162166155056e-01
    x[3,5]    findWorstP[3,1]  1.6876974331532338e-01
    x[3,5]    findWorstP[3,2]  1.6876974331532338e-01
    x[3,6]    allocateEach[6]  1
    x[3,6]    findWorstP[1,3]  -1.2105860113421547e-01
    x[3,6]    findWorstP[2,3]  -9.3501206520133273e-02
    x[3,6]    findWorstP[3,1]  5.6480986000586896e-02
    x[3,6]    findWorstP[3,2]  5.6480986000586896e-02
    x[3,7]    allocateEach[7]  1
    x[3,7]    findWorstP[1,3]  -1.0012854442344044e-01
    x[3,7]    findWorstP[2,3]  -0.0351286134046849
    x[3,7]    findWorstP[3,1]  1.4223817990367850e-02
    x[3,7]    findWorstP[3,2]  1.4223817990367850e-02
    x[3,8]    allocateEach[8]  1
    x[3,8]    findWorstP[1,3]  -6.1398865784499041e-03
    x[3,8]    findWorstP[2,3]  -1.1467686600239660e-01
    x[3,8]    findWorstP[3,1]  1.2457924082097667e-01
    x[3,8]    findWorstP[3,2]  1.2457924082097667e-01
    x[3,9]    allocateEach[9]  1
    x[3,9]    findWorstP[1,3]  -1.4440831758034023e-01
    x[3,9]    findWorstP[2,3]  -8.3077529178088930e-02
    x[3,9]    findWorstP[3,1]  0.0651809911791614
    x[3,9]    findWorstP[3,2]  0.0651809911791614
    x[3,10]   allocateEach[10]  1
    x[3,10]   findWorstP[1,3]  -0.000166351606805293
    x[3,10]   findWorstP[2,3]  -0.0354405029629508
    x[3,10]   findWorstP[3,1]  6.6889920767809974e-02
    x[3,10]   findWorstP[3,2]  6.6889920767809974e-02
    x[3,11]   allocateEach[11]  1
    x[3,11]   findWorstP[1,3]  -7.4858223062381837e-02
    x[3,11]   findWorstP[2,3]  -1.0389205338236017e-01
    x[3,11]   findWorstP[3,1]  7.5313735305794813e-02
    x[3,11]   findWorstP[3,2]  7.5313735305794813e-02
    x[3,12]   allocateEach[12]  1
    x[3,12]   findWorstP[1,3]  -3.9576559546313790e-02
    x[3,12]   findWorstP[2,3]  -6.9272312414845934e-03
    x[3,12]   findWorstP[3,1]  1.6212390602613452e-01
    x[3,12]   findWorstP[3,2]  1.6212390602613452e-01
    MARKER    'MARKER'                 'INTEND'
RHS
    RHS1      allocateEach[1]  1
    RHS1      allocateEach[2]  1
    RHS1      allocateEach[3]  1
    RHS1      allocateEach[4]  1
    RHS1      allocateEach[5]  1
    RHS1      allocateEach[6]  1
    RHS1      allocateEach[7]  1
    RHS1      allocateEach[8]  1
    RHS1      allocateEach[9]  1
    RHS1      allocateEach[10]  1
    RHS1      allocateEach[11]  1
    RHS1      allocateEach[12]  1
    RHS1      allocateAllCash  1
BOUNDS
 UP BND1      z         1
 MI BND1      cashProportion[1]
 UP BND1      cashProportion[1]  1
 MI BND1      cashProportion[2]
 UP BND1      cashProportion[2]  1
 MI BND1      cashProportion[3]
 UP BND1      cashProportion[3]  1
 BV BND1      x[1,1]  
 BV BND1      x[1,2]  
 BV BND1      x[1,3]  
 BV BND1      x[1,4]  
 BV BND1      x[1,5]  
 BV BND1      x[1,6]  
 BV BND1      x[1,7]  
 BV BND1      x[1,8]  
 BV BND1      x[1,9]  
 BV BND1      x[1,10] 
 BV BND1      x[1,11] 
 BV BND1      x[1,12] 
 BV BND1      x[2,1]  
 BV BND1      x[2,2]  
 BV BND1      x[2,3]  
 BV BND1      x[2,4]  
 BV BND1      x[2,5]  
 BV BND1      x[2,6]  
 BV BND1      x[2,7]  
 BV BND1      x[2,8]  
 BV BND1      x[2,9]  
 BV BND1      x[2,10] 
 BV BND1      x[2,11] 
 BV BND1      x[2,12] 
 BV BND1      x[3,1]  
 BV BND1      x[3,2]  
 BV BND1      x[3,3]  
 BV BND1      x[3,4]  
 BV BND1      x[3,5]  
 BV BND1      x[3,6]  
 BV BND1      x[3,7]  
 BV BND1      x[3,8]  
 BV BND1      x[3,9]  
 BV BND1      x[3,10] 
 BV BND1      x[3,11] 
 BV BND1      x[3,12] 
ENDATA
